&CONTROL
  title = 'pre-ph'
  calculation = 'scf'
  pseudo_dir = '/home/mehlhorn/pseudos/'
/
&SYSTEM
  ecutwfc =   100
  ecutrho =   800
  ibrav = 8
 A = 7.314375306039859,
 B = 7.23129746101381,
 C = 4.577520973927481,
  nat = 22
  ntyp = 3
  occupations = 'fixed'
/
&ELECTRONS
  conv_thr =   1.000000000d-10
/
&IONS
/
ATOMIC_SPECIES
B      10.811 b_pbesol_v1.4.uspp.F.UPF
Ba     137.327 Ba.nc.z_10.oncvpsp4.dojo.v4-sp.upf
H      1.00794 H_ONCV_PBEsol-1.0.upf

K_POINTS automatic
  5 5 5 0 0 0
  
ATOMIC_POSITIONS (crystal)
Ba               0.5000000000        0.5000000000        0.5000228184
Ba               0.0000000000        0.0000000000        0.9999771816
B                0.6506416338        0.2770619762        0.0000215892
B                0.3493583662        0.7229380238        0.0000215892
B                0.1506416338        0.2229380238        0.4999784108
B                0.8493583662        0.7770619762        0.4999784108
H                0.4819832125        0.2815395381        0.0000220534
H                0.5180167875        0.7184604619        0.0000220534
H                0.9819832125        0.2184604619        0.4999779466
H                0.0180167875        0.7815395381        0.4999779466
H                0.7124278505        0.4362112889        0.0000234972
H                0.2875721495        0.5637887111        0.0000234972
H                0.2124278505        0.0637887111        0.4999765028
H                0.7875721495        0.9362112889        0.4999765028
H                0.7007933351        0.1971948609        0.7767409201
H                0.2992066649        0.8028051391        0.7767409201
H                0.2007933351        0.3028051391        0.7232590799
H                0.7992066649        0.6971948609        0.7232590799
H                0.2991844512        0.8027990215        0.2232946590
H                0.7008155488        0.1972009785        0.2232946590
H                0.7991844512        0.6972009785        0.2767053410
H                0.2008155488        0.3027990215        0.2767053410
