&CONTROL
  title = 'pre-ph'
  calculation = 'scf'
  pseudo_dir = '/home/mehlhorn/pseudos/'
/
&SYSTEM
  ecutwfc =   100
  ecutrho =   800
  ibrav = 8
 A = 7.23602156579381,
 B = 7.160639949331075,
 C = 4.591125507468204,
  nat = 22
  ntyp = 3
  occupations = 'fixed'
/
&ELECTRONS
  conv_thr =   1.000000000d-10
/
&IONS
/
ATOMIC_SPECIES
B      10.811 b_pbesol_v1.4.uspp.F.UPF
Ba     137.327 Ba.nc.z_10.oncvpsp4.dojo.v4-sp.upf
H      1.00794 H_ONCV_PBEsol-1.0.upf

K_POINTS automatic
  5 5 5 0 0 0
  
ATOMIC_POSITIONS (crystal)
Ba               0.5000000000        0.5000000000        0.5000175782
Ba               0.0000000000        0.0000000000        0.9999824218
B                0.6413578704        0.2676492137        0.0000175348
B                0.3586421296        0.7323507863        0.0000175348
B                0.1413578704        0.2323507863        0.4999824652
B                0.8586421296        0.7676492137        0.4999824652
H                0.4714554410        0.2820742045        0.0000126990
H                0.5285445590        0.7179257955        0.0000126990
H                0.9714554410        0.2179257955        0.4999873010
H                0.0285445590        0.7820742045        0.4999873010
H                0.7128420408        0.4245542257        0.0000101047
H                0.2871579592        0.5754457743        0.0000101047
H                0.2128420408        0.0754457743        0.4999898953
H                0.7871579592        0.9245542257        0.4999898953
H                0.6872173341        0.1837513152        0.7776742864
H                0.3127826659        0.8162486848        0.7776742864
H                0.1872173341        0.3162486848        0.7223257136
H                0.8127826659        0.6837513152        0.7223257136
H                0.3127767409        0.8162500353        0.2223576136
H                0.6872232591        0.1837499647        0.2223576136
H                0.8127767409        0.6837499647        0.2776423864
H                0.1872232591        0.3162500353        0.2776423864
