&CONTROL
  title = 'pre-ph'
  calculation = 'scf'
  pseudo_dir = '/home/mehlhorn/pseudos/'
/
&SYSTEM
  ecutwfc =   100
  ecutrho =   800
  ibrav = 8
 A = 7.192858708020504,
 B = 7.12856145631516,
 C = 4.598220217142425,
  nat = 22
  ntyp = 3
  occupations = 'fixed'
/
&ELECTRONS
  conv_thr =   1.000000000d-10
/
&IONS
/
ATOMIC_SPECIES
B      10.811 b_pbesol_v1.4.uspp.F.UPF
Ba     137.327 Ba.nc.z_10.oncvpsp4.dojo.v4-sp.upf
H      1.00794 H_ONCV_PBEsol-1.0.upf

K_POINTS automatic
  5 5 5 0 0 0
  
ATOMIC_POSITIONS (crystal)
Ba               0.5000000000        0.5000000000        0.5000041113
Ba               0.0000000000        0.0000000000        0.9999958887
B                0.6373762304        0.2636725026        0.0000158092
B                0.3626237696        0.7363274974        0.0000158092
B                0.1373762304        0.2363274974        0.4999841908
B                0.8626237696        0.7636725026        0.4999841908
H                0.4669089705        0.2826803330        0.0000027383
H                0.5330910295        0.7173196670        0.0000027383
H                0.9669089705        0.2173196670        0.4999972617
H                0.0330910295        0.7826803330        0.4999972617
H                0.7133542723        0.4193674158        0.0000150856
H                0.2866457277        0.5806325842        0.0000150856
H                0.2133542723        0.0806325842        0.4999849144
H                0.7866457277        0.9193674158        0.4999849144
H                0.6812530223        0.1780118653        0.7781544026
H                0.3187469777        0.8219881347        0.7781544026
H                0.1812530223        0.3219881347        0.7218455974
H                0.8187469777        0.6780118653        0.7218455974
H                0.3187475809        0.8219885075        0.2218789540
H                0.6812524191        0.1780114925        0.2218789540
H                0.8187475809        0.6780114925        0.2781210460
H                0.1812524191        0.3219885075        0.2781210460
