&CONTROL
  title = 'pre-ph'
  calculation = 'scf'
  pseudo_dir = '/home/mehlhorn/pseudos/'
/
&SYSTEM
  ecutwfc =   100
  ecutrho =   800
  ibrav = 8
 A = 7.053599708315745,
 B = 7.043407327273226,
 C = 4.618005554089747,
  nat = 22
  ntyp = 3
  occupations = 'fixed'
/
&ELECTRONS
  conv_thr =   1.000000000d-10
/
&IONS
/
ATOMIC_SPECIES
B      10.811 b_pbesol_v1.4.uspp.F.UPF
Ba     137.327 Ba.nc.z_10.oncvpsp4.dojo.v4-sp.upf
H      1.00794 H_ONCV_PBEsol-1.0.upf

K_POINTS automatic
  5 5 5 0 0 0
  
ATOMIC_POSITIONS (crystal)
Ba               0.5000000000        0.5000000000        0.4999987594
Ba               0.0000000000        0.0000000000        1.0000012406
B                0.6273963679        0.2539875292        0.0000084082
B                0.3726036321        0.7460124708        0.0000084082
B                0.1273963679        0.2460124708        0.4999915918
B                0.8726036321        0.7539875292        0.4999915918
H                0.4554096088        0.2854124085       -0.0000121555
H                0.5445903912        0.7145875915       -0.0000121555
H                0.9554096088        0.2145875915        0.5000121555
H                0.0445903912        0.7854124085        0.5000121555
H                0.7157589785        0.4058194879        0.0000091892
H                0.2842410215        0.5941805121        0.0000091892
H                0.2157589785        0.0941805121        0.4999908108
H                0.7842410215        0.9058194879        0.4999908108
H                0.6658168521        0.1638697237        0.7794884291
H                0.3341831479        0.8361302763        0.7794884291
H                0.1658168521        0.3361302763        0.7205115709
H                0.8341831479        0.6638697237        0.7205115709
H                0.3341889191        0.8361295745        0.2205335413
H                0.6658110809        0.1638704255        0.2205335413
H                0.8341889191        0.6638704255        0.2794664587
H                0.1658110809        0.3361295745        0.2794664587
