&CONTROL
  title = 'pre-ph'
  calculation = 'scf'
  pseudo_dir = '/home/mehlhorn/pseudos/'
/
&SYSTEM
  ecutwfc =   100
  ecutrho =   800
  ibrav = 8
 A = 7.101116577968077,
 B = 7.070170551021785,
 C = 4.611857868490397,
  nat = 22
  ntyp = 3
  occupations = 'fixed'
/
&ELECTRONS
  conv_thr =   1.000000000d-10
/
&IONS
/
ATOMIC_SPECIES
B      10.811 b_pbesol_v1.4.uspp.F.UPF
Ba     137.327 Ba.nc.z_10.oncvpsp4.dojo.v4-sp.upf
H      1.00794 H_ONCV_PBEsol-1.0.upf

K_POINTS automatic
  5 5 5 0 0 0
  
ATOMIC_POSITIONS (crystal)
Ba               0.5000000000        0.5000000000        0.5000002764
Ba               0.0000000000        0.0000000000        0.9999997236
B                0.6304291863        0.2568824539        0.0000108598
B                0.3695708137        0.7431175461        0.0000108598
B                0.1304291863        0.2431175461        0.4999891402
B                0.8695708137        0.7568824539        0.4999891402
H                0.4589234318        0.2843854105       -0.0000096295
H                0.5410765682        0.7156145895       -0.0000096295
H                0.9589234318        0.2156145895        0.5000096295
H                0.0410765682        0.7843854105        0.5000096295
H                0.7148392306        0.4100228476        0.0000126176
H                0.2851607694        0.5899771524        0.0000126176
H                0.2148392306        0.0899771524        0.4999873824
H                0.7851607694        0.9100228476        0.4999873824
H                0.6705874956        0.1681237317        0.7790704744
H                0.3294125044        0.8318762683        0.7790704744
H                0.1705874956        0.3318762683        0.7209295256
H                0.8294125044        0.6681237317        0.7209295256
H                0.3294167455        0.8318749764        0.2209563191
H                0.6705832545        0.1681250236        0.2209563191
H                0.8294167455        0.6681250236        0.2790436809
H                0.1705832545        0.3318749764        0.2790436809
