&CONTROL
  title = 'pre-ph'
  calculation = 'scf'
  pseudo_dir = '/home/mehlhorn/pseudos/'
/
&SYSTEM
  ecutwfc =   100
  ecutrho =   800
  ibrav = 8
 A = 7.276500002829823,
 B = 7.194945500153107,
 C = 4.584206207592793,
  nat = 22
  ntyp = 3
  occupations = 'fixed'
/
&ELECTRONS
  conv_thr =   1.000000000d-10
/
&IONS
/
ATOMIC_SPECIES
B      10.811 b_pbesol_v1.4.uspp.F.UPF
Ba     137.327 Ba.nc.z_10.oncvpsp4.dojo.v4-sp.upf
H      1.00794 H_ONCV_PBEsol-1.0.upf

K_POINTS automatic
  5 5 5 0 0 0
  
ATOMIC_POSITIONS (crystal)
Ba               0.5000000000        0.5000000000        0.5000209318
Ba               0.0000000000        0.0000000000        0.9999790682
B                0.6457471943        0.2720828799        0.0000175716
B                0.3542528057        0.7279171201        0.0000175716
B                0.1457471943        0.2279171201        0.4999824284
B                0.8542528057        0.7720828799        0.4999824284
H                0.4764410567        0.2817065909        0.0000207205
H                0.5235589433        0.7182934091        0.0000207205
H                0.9764410567        0.2182934091        0.4999792795
H                0.0235589433        0.7817065909        0.4999792795
H                0.7125446937        0.4301287676        0.0000160564
H                0.2874553063        0.5698712324        0.0000160564
H                0.2125446937        0.0698712324        0.4999839436
H                0.7874553063        0.9301287676        0.4999839436
H                0.6936781081        0.1900978094        0.7772011228
H                0.3063218919        0.8099021906        0.7772011228
H                0.1936781081        0.3099021906        0.7227988772
H                0.8063218919        0.6900978094        0.7227988772
H                0.3063087259        0.8098986203        0.2228294361
H                0.6936912741        0.1901013797        0.2228294361
H                0.8063087259        0.6901013797        0.2771705639
H                0.1936912741        0.3098986203        0.2771705639
