&CONTROL
  title = 'pre-ph'
  calculation = 'scf'
  pseudo_dir = '/home/mehlhorn/pseudos/'
/
&SYSTEM
  ecutwfc =   100
  ecutrho =   800
  ibrav = 8
 A = 6.958608006848688,
 B = 6.993368202253138,
 C = 4.627635764260137,
  nat = 22
  ntyp = 3
  occupations = 'fixed'
/
&ELECTRONS
  conv_thr =   1.000000000d-10
/
&IONS
/
ATOMIC_SPECIES
B      10.811 b_pbesol_v1.4.uspp.F.UPF
Ba     137.327 Ba.nc.z_10.oncvpsp4.dojo.v4-sp.upf
H      1.00794 H_ONCV_PBEsol-1.0.upf

K_POINTS automatic
  5 5 5 0 0 0
  
ATOMIC_POSITIONS (crystal)
Ba               0.5000000000        0.5000000000        0.5000049968
Ba               0.0000000000        0.0000000000        0.9999950032
B                0.6221553268        0.2491100269        0.0000050616
B                0.3778446732        0.7508899731        0.0000050616
B                0.1221553268        0.2508899731        0.4999949384
B                0.8778446732        0.7491100269        0.4999949384
H                0.4492521412        0.2875209324       -0.0000194283
H                0.5507478588        0.7124790676       -0.0000194283
H                0.9492521412        0.2124790676        0.5000194283
H                0.0507478588        0.7875209324        0.5000194283
H                0.7177062341        0.3984637891        0.0000046596
H                0.2822937659        0.6015362109        0.0000046596
H                0.2177062341        0.1015362109        0.4999953404
H                0.7822937659        0.8984637891        0.4999953404
H                0.6574615302        0.1566644502        0.7801750845
H                0.3425384698        0.8433355498        0.7801750845
H                0.1574615302        0.3433355498        0.7198249155
H                0.8425384698        0.6566644502        0.7198249155
H                0.3425471504        0.8433347504        0.2198407636
H                0.6574528496        0.1566652496        0.2198407636
H                0.8425471504        0.6566652496        0.2801592364
H                0.1574528496        0.3433347504        0.2801592364
