&CONTROL
  title = 'pre-ph'
  calculation = 'scf'
  pseudo_dir = '/home/mehlhorn/pseudos/'
/
&SYSTEM
  ecutwfc =   100
  ecutrho =   800
  ibrav = 8
 A = 7.0058759197905385,
 B = 7.017824371112982,
 C = 4.623404089497022,
  nat = 22
  ntyp = 3
  occupations = 'fixed'
/
&ELECTRONS
  conv_thr =   1.000000000d-10
/
&IONS
/
ATOMIC_SPECIES
B      10.811 b_pbesol_v1.4.uspp.F.UPF
Ba     137.327 Ba.nc.z_10.oncvpsp4.dojo.v4-sp.upf
H      1.00794 H_ONCV_PBEsol-1.0.upf

K_POINTS automatic
  5 5 5 0 0 0
  
ATOMIC_POSITIONS (crystal)
Ba               0.5000000000        0.5000000000        0.5000066782
Ba               0.0000000000        0.0000000000        0.9999933218
B                0.6246453383        0.2513996672        0.0000065662
B                0.3753546617        0.7486003328        0.0000065662
B                0.1246453383        0.2486003328        0.4999934338
B                0.8753546617        0.7513996672        0.4999934338
H                0.4521950405        0.2864723380       -0.0000171829
H                0.5478049595        0.7135276620       -0.0000171829
H                0.9521950405        0.2135276620        0.5000171829
H                0.0478049595        0.7864723380        0.5000171829
H                0.7167337766        0.4019575422        0.0000064524
H                0.2832662234        0.5980424578        0.0000064524
H                0.2167337766        0.0980424578        0.4999935476
H                0.7832662234        0.9019575422        0.4999935476
H                0.6614430564        0.1600527751        0.7798636564
H                0.3385569436        0.8399472249        0.7798636564
H                0.1614430564        0.3399472249        0.7201363436
H                0.8385569436        0.6600527751        0.7201363436
H                0.3385645361        0.8399462318        0.2201549830
H                0.6614354639        0.1600537682        0.2201549830
H                0.8385645361        0.6600537682        0.2798450170
H                0.1614354639        0.3399462318        0.2798450170
