&CONTROL
  title = 'pre-ph'
  calculation = 'scf'
  pseudo_dir = '/home/mehlhorn/pseudos/'
/
&SYSTEM
  ecutwfc =   100
  ecutrho =   800
  ibrav = 8
 A = 6.912413635713908,
 B = 6.969614273294258,
 C = 4.6305473695458454,
  nat = 22
  ntyp = 3
  occupations = 'fixed'
/
&ELECTRONS
  conv_thr =   1.000000000d-10
/
&IONS
/
ATOMIC_SPECIES
B      10.811 b_pbesol_v1.4.uspp.F.UPF
Ba     137.327 Ba.nc.z_10.oncvpsp4.dojo.v4-sp.upf
H      1.00794 H_ONCV_PBEsol-1.0.upf

K_POINTS automatic
  5 5 5 0 0 0
  
ATOMIC_POSITIONS (crystal)
Ba               0.5000000000        0.5000000000        0.5000030353
Ba               0.0000000000        0.0000000000        0.9999969647
B                0.6199027667        0.2470767861        0.0000030988
B                0.3800972333        0.7529232139        0.0000030988
B                0.1199027667        0.2529232139        0.4999969012
B                0.8800972333        0.7470767861        0.4999969012
H                0.4465500107        0.2884974254       -0.0000196653
H                0.5534499893        0.7115025746       -0.0000196653
H                0.9465500107        0.2115025746        0.5000196653
H                0.0534499893        0.7884974254        0.5000196653
H                0.7186284160        0.3953345885        0.0000044510
H                0.2813715840        0.6046654115        0.0000044510
H                0.2186284160        0.1046654115        0.4999955490
H                0.7813715840        0.8953345885        0.4999955490
H                0.6538704440        0.1536545161        0.7804148506
H                0.3461295560        0.8463454839        0.7804148506
H                0.1538704440        0.3463454839        0.7195851494
H                0.8461295560        0.6536545161        0.7195851494
H                0.3461394558        0.8463433763        0.2195981311
H                0.6538605442        0.1536566237        0.2195981311
H                0.8461394558        0.6536566237        0.2804018689
H                0.1538605442        0.3463433763        0.2804018689
