&CONTROL
  title = 'pre-ph'
  calculation = 'scf'
  pseudo_dir = '/home/mehlhorn/pseudos/'
/
&SYSTEM
  ecutwfc =   100
  ecutrho =   800
  ibrav = 8
 A = 7.1477639512539595,
 B = 7.098487695439852,
 C = 4.605158356453042,
  nat = 22
  ntyp = 3
  occupations = 'fixed'
/
&ELECTRONS
  conv_thr =   1.000000000d-10
/
&IONS
/
ATOMIC_SPECIES
B      10.811 b_pbesol_v1.4.uspp.F.UPF
Ba     137.327 Ba.nc.z_10.oncvpsp4.dojo.v4-sp.upf
H      1.00794 H_ONCV_PBEsol-1.0.upf

K_POINTS automatic
  5 5 5 0 0 0
  
ATOMIC_POSITIONS (crystal)
Ba               0.5000000000        0.5000000000        0.5000026937
Ba               0.0000000000        0.0000000000        0.9999973063
B                0.6337456546        0.2600979756        0.0000138219
B                0.3662543454        0.7399020244        0.0000138219
B                0.1337456546        0.2399020244        0.4999861781
B                0.8662543454        0.7600979756        0.4999861781
H                0.4627454545        0.2834582122       -0.0000031874
H                0.5372545455        0.7165417878       -0.0000031874
H                0.9627454545        0.2165417878        0.5000031874
H                0.0372545455        0.7834582122        0.5000031874
H                0.7140244262        0.4145346493        0.0000118901
H                0.2859755738        0.5854653507        0.0000118901
H                0.2140244262        0.0854653507        0.4999881099
H                0.7859755738        0.9145346493        0.4999881099
H                0.6757239483        0.1728225950        0.7786203557
H                0.3242760517        0.8271774050        0.7786203557
H                0.1757239483        0.3271774050        0.7213796443
H                0.8242760517        0.6728225950        0.7213796443
H                0.3242793223        0.8271783454        0.2214101741
H                0.6757206777        0.1728216546        0.2214101741
H                0.8242793223        0.6728216546        0.2785898259
H                0.1757206777        0.3271783454        0.2785898259
